/*********************************************
 * OPL 12.8.0.0 Data
 * Author: dell-pc
 * Creation Date: 2018年4月12日 at 下午9:02:33
 *********************************************/
input
= [
[4,0,0,0,0,0,0,0,0],
[0,0,0,0,0,0,0,0,0],
[0,0,0,0,0,0,0,0,0],
[0,0,0,0,0,0,0,0,0],
[0,0,0,0,0,0,0,0,0],
[0,0,0,0,0,0,0,0,0],
[0,0,0,0,0,0,0,0,0],
[0,0,0,0,0,0,0,0,0],
[0,0,0,0,0,0,0,0,0]
];
